p cnf 1246
-22 -386
-23 -389
-24 -392
-25 -395
-26 -398
-27 -401
-28 -404
-29 -407
-30 -410
-31 -413
-32 -416
-33 -419
-34 -422
-35 -425
-36 -428
-37 -431
-38 -434
-39 -437
-40 -440
-41 -443
-42 -446
-43 447
-44 448
-45 449
-46 450
-47 451
-48 452
-49 -23
-49 -24
23 24 49
-50 -25
-50 -26
25 26 50
-51 -27
-51 -28
27 28 51
-52 -29
-52 -30
29 30 52
-53 -31
-53 -32
31 32 53
-54 -33
-54 -34
33 34 54
-55 -35
-55 -36
35 36 55
-56 -37
-56 -38
37 38 56
-57 -39
-57 -40
39 40 57
-58 -41
-58 -42
41 42 58
-59 -43
-59 -44
43 44 59
-60 -45
-60 -46
45 46 60
-61 -47
-61 -48
47 48 61
-62 49
-62 50
-49 -50 62
-63 51
-63 52
-51 -52 63
-64 53
-64 54
-53 -54 64
-65 55
-65 56
-55 -56 65
-66 57
-66 58
-57 -58 66
-67 59
-67 60
-59 -60 67
-68 62
-68 63
-62 -63 68
-69 64
-69 65
-64 -65 69
-70 66
-70 67
-66 -67 70
-71 68
-71 69
-68 -69 71
-72 61
-72 70
-61 -70 72
-73 71
-73 72
-71 -72 73
-74 -22
-74 23
22 -23 74
-75 22
-75 -23
-22 23 75
-76 -74
-76 -75
74 75 76
-77 22
-77 23
-22 -23 77
-78 -22
-78 -76
22 76 78
-79 22
-79 76
-22 -76 79
-80 -78
-80 -79
78 79 80
-81 22
-81 -76
-22 76 81
-82 -77
-82 -81
77 81 82
-83 -23
-83 24
23 -24 83
-84 23
-84 -24
-23 24 84
-85 -83
-85 -84
83 84 85
-86 23
-86 24
-23 -24 86
-87 82
-87 -85
-82 85 87
-88 -82
-88 85
82 -85 88
-89 -87
-89 -88
87 88 89
-90 -82
-90 -85
82 85 90
-91 -86
-91 -90
86 90 91
-92 -24
-92 25
24 -25 92
-93 24
-93 -25
-24 25 93
-94 -92
-94 -93
92 93 94
-95 24
-95 25
-24 -25 95
-96 91
-96 -94
-91 94 96
-97 -91
-97 94
91 -94 97
-98 -96
-98 -97
96 97 98
-99 -91
-99 -94
91 94 99
-100 -95
-100 -99
95 99 100
-101 -25
-101 26
25 -26 101
-102 25
-102 -26
-25 26 102
-103 -101
-103 -102
101 102 103
-104 25
-104 26
-25 -26 104
-105 100
-105 -103
-100 103 105
-106 -100
-106 103
100 -103 106
-107 -105
-107 -106
105 106 107
-108 -100
-108 -103
100 103 108
-109 -104
-109 -108
104 108 109
-110 -26
-110 27
26 -27 110
-111 26
-111 -27
-26 27 111
-112 -110
-112 -111
110 111 112
-113 26
-113 27
-26 -27 113
-114 109
-114 -112
-109 112 114
-115 -109
-115 112
109 -112 115
-116 -114
-116 -115
114 115 116
-117 -109
-117 -112
109 112 117
-118 -113
-118 -117
113 117 118
-119 -27
-119 28
27 -28 119
-120 27
-120 -28
-27 28 120
-121 -119
-121 -120
119 120 121
-122 27
-122 28
-27 -28 122
-123 118
-123 -121
-118 121 123
-124 -118
-124 121
118 -121 124
-125 -123
-125 -124
123 124 125
-126 -118
-126 -121
118 121 126
-127 -122
-127 -126
122 126 127
-128 -28
-128 29
28 -29 128
-129 28
-129 -29
-28 29 129
-130 -128
-130 -129
128 129 130
-131 28
-131 29
-28 -29 131
-132 127
-132 -130
-127 130 132
-133 -127
-133 130
127 -130 133
-134 -132
-134 -133
132 133 134
-135 -127
-135 -130
127 130 135
-136 -131
-136 -135
131 135 136
-137 -29
-137 30
29 -30 137
-138 29
-138 -30
-29 30 138
-139 -137
-139 -138
137 138 139
-140 29
-140 30
-29 -30 140
-141 136
-141 -139
-136 139 141
-142 -136
-142 139
136 -139 142
-143 -141
-143 -142
141 142 143
-144 -136
-144 -139
136 139 144
-145 -140
-145 -144
140 144 145
-146 -30
-146 31
30 -31 146
-147 30
-147 -31
-30 31 147
-148 -146
-148 -147
146 147 148
-149 30
-149 31
-30 -31 149
-150 145
-150 -148
-145 148 150
-151 -145
-151 148
145 -148 151
-152 -150
-152 -151
150 151 152
-153 -145
-153 -148
145 148 153
-154 -149
-154 -153
149 153 154
-155 -31
-155 32
31 -32 155
-156 31
-156 -32
-31 32 156
-157 -155
-157 -156
155 156 157
-158 31
-158 32
-31 -32 158
-159 154
-159 -157
-154 157 159
-160 -154
-160 157
154 -157 160
-161 -159
-161 -160
159 160 161
-162 -154
-162 -157
154 157 162
-163 -158
-163 -162
158 162 163
-164 -32
-164 33
32 -33 164
-165 32
-165 -33
-32 33 165
-166 -164
-166 -165
164 165 166
-167 32
-167 33
-32 -33 167
-168 163
-168 -166
-163 166 168
-169 -163
-169 166
163 -166 169
-170 -168
-170 -169
168 169 170
-171 -163
-171 -166
163 166 171
-172 -167
-172 -171
167 171 172
-173 -33
-173 34
33 -34 173
-174 33
-174 -34
-33 34 174
-175 -173
-175 -174
173 174 175
-176 33
-176 34
-33 -34 176
-177 172
-177 -175
-172 175 177
-178 -172
-178 175
172 -175 178
-179 -177
-179 -178
177 178 179
-180 -172
-180 -175
172 175 180
-181 -176
-181 -180
176 180 181
-182 -34
-182 35
34 -35 182
-183 34
-183 -35
-34 35 183
-184 -182
-184 -183
182 183 184
-185 34
-185 35
-34 -35 185
-186 181
-186 -184
-181 184 186
-187 -181
-187 184
181 -184 187
-188 -186
-188 -187
186 187 188
-189 -181
-189 -184
181 184 189
-190 -185
-190 -189
185 189 190
-191 -35
-191 36
35 -36 191
-192 35
-192 -36
-35 36 192
-193 -191
-193 -192
191 192 193
-194 35
-194 36
-35 -36 194
-195 190
-195 -193
-190 193 195
-196 -190
-196 193
190 -193 196
-197 -195
-197 -196
195 196 197
-198 -190
-198 -193
190 193 198
-199 -194
-199 -198
194 198 199
-200 -36
-200 37
36 -37 200
-201 36
-201 -37
-36 37 201
-202 -200
-202 -201
200 201 202
-203 36
-203 37
-36 -37 203
-204 199
-204 -202
-199 202 204
-205 -199
-205 202
199 -202 205
-206 -204
-206 -205
204 205 206
-207 -199
-207 -202
199 202 207
-208 -203
-208 -207
203 207 208
-209 -37
-209 38
37 -38 209
-210 37
-210 -38
-37 38 210
-211 -209
-211 -210
209 210 211
-212 37
-212 38
-37 -38 212
-213 208
-213 -211
-208 211 213
-214 -208
-214 211
208 -211 214
-215 -213
-215 -214
213 214 215
-216 -208
-216 -211
208 211 216
-217 -212
-217 -216
212 216 217
-218 -38
-218 39
38 -39 218
-219 38
-219 -39
-38 39 219
-220 -218
-220 -219
218 219 220
-221 38
-221 39
-38 -39 221
-222 217
-222 -220
-217 220 222
-223 -217
-223 220
217 -220 223
-224 -222
-224 -223
222 223 224
-225 -217
-225 -220
217 220 225
-226 -221
-226 -225
221 225 226
-227 -39
-227 40
39 -40 227
-228 39
-228 -40
-39 40 228
-229 -227
-229 -228
227 228 229
-230 39
-230 40
-39 -40 230
-231 226
-231 -229
-226 229 231
-232 -226
-232 229
226 -229 232
-233 -231
-233 -232
231 232 233
-234 -226
-234 -229
226 229 234
-235 -230
-235 -234
230 234 235
-236 -40
-236 41
40 -41 236
-237 40
-237 -41
-40 41 237
-238 -236
-238 -237
236 237 238
-239 40
-239 41
-40 -41 239
-240 235
-240 -238
-235 238 240
-241 -235
-241 238
235 -238 241
-242 -240
-242 -241
240 241 242
-243 -235
-243 -238
235 238 243
-244 -239
-244 -243
239 243 244
-245 -41
-245 42
41 -42 245
-246 41
-246 -42
-41 42 246
-247 -245
-247 -246
245 246 247
-248 41
-248 42
-41 -42 248
-249 244
-249 -247
-244 247 249
-250 -244
-250 247
244 -247 250
-251 -249
-251 -250
249 250 251
-252 -244
-252 -247
244 247 252
-253 -248
-253 -252
248 252 253
-254 -42
-254 43
42 -43 254
-255 42
-255 -43
-42 43 255
-256 -254
-256 -255
254 255 256
-257 42
-257 43
-42 -43 257
-258 253
-258 -256
-253 256 258
-259 -253
-259 256
253 -256 259
-260 -258
-260 -259
258 259 260
-261 -253
-261 -256
253 256 261
-262 -257
-262 -261
257 261 262
-263 -43
-263 44
43 -44 263
-264 43
-264 -44
-43 44 264
-265 -263
-265 -264
263 264 265
-266 43
-266 44
-43 -44 266
-267 262
-267 -265
-262 265 267
-268 -262
-268 265
262 -265 268
-269 -267
-269 -268
267 268 269
-270 -262
-270 -265
262 265 270
-271 -266
-271 -270
266 270 271
-272 -44
-272 45
44 -45 272
-273 44
-273 -45
-44 45 273
-274 -272
-274 -273
272 273 274
-275 44
-275 45
-44 -45 275
-276 271
-276 -274
-271 274 276
-277 -271
-277 274
271 -274 277
-278 -276
-278 -277
276 277 278
-279 -271
-279 -274
271 274 279
-280 -275
-280 -279
275 279 280
-281 -45
-281 46
45 -46 281
-282 45
-282 -46
-45 46 282
-283 -281
-283 -282
281 282 283
-284 45
-284 46
-45 -46 284
-285 280
-285 -283
-280 283 285
-286 -280
-286 283
280 -283 286
-287 -285
-287 -286
285 286 287
-288 -280
-288 -283
280 283 288
-289 -284
-289 -288
284 288 289
-290 -46
-290 47
46 -47 290
-291 46
-291 -47
-46 47 291
-292 -290
-292 -291
290 291 292
-293 46
-293 47
-46 -47 293
-294 289
-294 -292
-289 292 294
-295 -289
-295 292
289 -292 295
-296 -294
-296 -295
294 295 296
-297 -289
-297 -292
289 292 297
-298 -293
-298 -297
293 297 298
-299 -47
-299 48
47 -48 299
-300 47
-300 -48
-47 48 300
-301 -299
-301 -300
299 300 301
-302 47
-302 48
-47 -48 302
-303 298
-303 -301
-298 301 303
-304 -298
-304 301
298 -301 304
-305 -303
-305 -304
303 304 305
-306 -298
-306 -301
298 301 306
-307 -302
-307 -306
302 306 307
-308 22
-308 -80
-22 80 308
-309 -22
-309 24
22 -24 309
-310 -308
-310 -309
308 309 310
-311 22
-311 -89
-22 89 311
-312 -22
-312 25
22 -25 312
-313 -311
-313 -312
311 312 313
-314 22
-314 -98
-22 98 314
-315 -22
-315 26
22 -26 315
-316 -314
-316 -315
314 315 316
-317 22
-317 -107
-22 107 317
-318 -22
-318 27
22 -27 318
-319 -317
-319 -318
317 318 319
-320 22
-320 -116
-22 116 320
-321 -22
-321 28
22 -28 321
-322 -320
-322 -321
320 321 322
-323 22
-323 -125
-22 125 323
-324 -22
-324 29
22 -29 324
-325 -323
-325 -324
323 324 325
-326 22
-326 -134
-22 134 326
-327 -22
-327 30
22 -30 327
-328 -326
-328 -327
326 327 328
-329 22
-329 -143
-22 143 329
-330 -22
-330 31
22 -31 330
-331 -329
-331 -330
329 330 331
-332 22
-332 -152
-22 152 332
-333 -22
-333 32
22 -32 333
-334 -332
-334 -333
332 333 334
-335 22
-335 -161
-22 161 335
-336 -22
-336 33
22 -33 336
-337 -335
-337 -336
335 336 337
-338 22
-338 -170
-22 170 338
-339 -22
-339 34
22 -34 339
-340 -338
-340 -339
338 339 340
-341 22
-341 -179
-22 179 341
-342 -22
-342 35
22 -35 342
-343 -341
-343 -342
341 342 343
-344 22
-344 -188
-22 188 344
-345 -22
-345 36
22 -36 345
-346 -344
-346 -345
344 345 346
-347 22
-347 -197
-22 197 347
-348 -22
-348 37
22 -37 348
-349 -347
-349 -348
347 348 349
-350 22
-350 -206
-22 206 350
-351 -22
-351 38
22 -38 351
-352 -350
-352 -351
350 351 352
-353 22
-353 -215
-22 215 353
-354 -22
-354 39
22 -39 354
-355 -353
-355 -354
353 354 355
-356 22
-356 -224
-22 224 356
-357 -22
-357 40
22 -40 357
-358 -356
-358 -357
356 357 358
-359 22
-359 -233
-22 233 359
-360 -22
-360 41
22 -41 360
-361 -359
-361 -360
359 360 361
-362 22
-362 -242
-22 242 362
-363 -22
-363 42
22 -42 363
-364 -362
-364 -363
362 363 364
-365 22
-365 -251
-22 251 365
-366 -22
-366 43
22 -43 366
-367 -365
-367 -366
365 366 367
-368 22
-368 -260
-22 260 368
-369 -22
-369 44
22 -44 369
-370 -368
-370 -369
368 369 370
-371 22
-371 -269
-22 269 371
-372 -22
-372 45
22 -45 372
-373 -371
-373 -372
371 372 373
-374 22
-374 -278
-22 278 374
-375 -22
-375 46
22 -46 375
-376 -374
-376 -375
374 375 376
-377 22
-377 -287
-22 287 377
-378 -22
-378 47
22 -47 378
-379 -377
-379 -378
377 378 379
-380 22
-380 -296
-22 296 380
-381 -22
-381 48
22 -48 381
-382 -380
-382 -381
380 381 382
-383 22
-383 -305
-22 305 383
-384 1
-384 73
-1 -73 384
-385 -73
-385 74
73 -74 385
-386 -384
-386 -385
384 385 386
-387 2
-387 73
-2 -73 387
-388 -73
-388 -310
73 310 388
-389 -387
-389 -388
387 388 389
-390 3
-390 73
-3 -73 390
-391 -73
-391 -313
73 313 391
-392 -390
-392 -391
390 391 392
-393 4
-393 73
-4 -73 393
-394 -73
-394 -316
73 316 394
-395 -393
-395 -394
393 394 395
-396 5
-396 73
-5 -73 396
-397 -73
-397 -319
73 319 397
-398 -396
-398 -397
396 397 398
-399 6
-399 73
-6 -73 399
-400 -73
-400 -322
73 322 400
-401 -399
-401 -400
399 400 401
-402 7
-402 73
-7 -73 402
-403 -73
-403 -325
73 325 403
-404 -402
-404 -403
402 403 404
-405 8
-405 73
-8 -73 405
-406 -73
-406 -328
73 328 406
-407 -405
-407 -406
405 406 407
-408 9
-408 73
-9 -73 408
-409 -73
-409 -331
73 331 409
-410 -408
-410 -409
408 409 410
-411 10
-411 73
-10 -73 411
-412 -73
-412 -334
73 334 412
-413 -411
-413 -412
411 412 413
-414 11
-414 73
-11 -73 414
-415 -73
-415 -337
73 337 415
-416 -414
-416 -415
414 415 416
-417 12
-417 73
-12 -73 417
-418 -73
-418 -340
73 340 418
-419 -417
-419 -418
417 418 419
-420 13
-420 73
-13 -73 420
-421 -73
-421 -343
73 343 421
-422 -420
-422 -421
420 421 422
-423 14
-423 73
-14 -73 423
-424 -73
-424 -346
73 346 424
-425 -423
-425 -424
423 424 425
-426 15
-426 73
-15 -73 426
-427 -73
-427 -349
73 349 427
-428 -426
-428 -427
426 427 428
-429 16
-429 73
-16 -73 429
-430 -73
-430 -352
73 352 430
-431 -429
-431 -430
429 430 431
-432 17
-432 73
-17 -73 432
-433 -73
-433 -355
73 355 433
-434 -432
-434 -433
432 433 434
-435 18
-435 73
-18 -73 435
-436 -73
-436 -358
73 358 436
-437 -435
-437 -436
435 436 437
-438 19
-438 73
-19 -73 438
-439 -73
-439 -361
73 361 439
-440 -438
-440 -439
438 439 440
-441 20
-441 73
-20 -73 441
-442 -73
-442 -364
73 364 442
-443 -441
-443 -442
441 442 443
-444 21
-444 73
-21 -73 444
-445 -73
-445 -367
73 367 445
-446 -444
-446 -445
444 445 446
-447 -73
-447 -370
73 370 447
-448 -73
-448 -373
73 373 448
-449 -73
-449 -376
73 376 449
-450 -73
-450 -379
73 379 450
-451 -73
-451 -382
73 382 451
-452 -73
-452 383
73 -383 452
-453 -48
-453 307
48 -307 453
-454 22
-454 -453
-22 453 454
454
